(set-info :status unsat)
(declare-codatatypes ((T 0)) ((
  (f0)
  (f1 (proj0f1 T) (proj1f1 T) (proj2f1 T))
  (f2 (proj0f2 T) (proj1f2 T))
  (f3 (proj0f3 T) (proj1f3 T) (proj2f3 T) (proj3f3 T)))))
(assert (exists ((y14707 T) (y14706 T) (y14705 T) (y14704 T) (y14703 T) (y14702 T) (y14701 T) (y14743 T) (y14742 T) (y14741 T) (y14740 T) (y14746 T) (y14709 T) (y14708 T) (y14736 T) (y14748 T) (y14729 T) (y14728 T) (y14737 T) (y14725 T) (y14727 T) (y14726 T) (y14721 T) (y14720 T) (y14723 T) (y14722 T) (y14735 T) (y14714 T) (y14715 T) (y14730 T) (y14744 T) (y14751 T) (y14752 T) (y14718 T) (y14719 T) (y14745 T) (y14738 T) (y14739 T) (y14710 T) (y14711 T) (y14712 T) (y14713 T) (y14732 T) (y14733 T) (y14716 T) (y14731 T)) (forall ((x14762 T) (x14760 T) (x14761 T) (x14757 T) (x14755 T) (x14754 T) (x14753 T) (x14759 T) (x14758 T)) 
  (or 
    (and (= y14701 (f1 (f2 y14703 (f1 (f3 x14762 x14762 x14762 x14762) (f3 x14762 x14762 x14762 x14762) (f1 x14762 x14762 x14762))) x14762 (f2 (f2 x14762 x14762) (f3 x14762 x14762 x14762 x14762)))) (= y14703 (f3 y14704 (f2 (f2 x14762 x14762) x14762) x14762 (f3 (f1 x14762 x14762 x14762) x14762 (f2 x14762 x14762) x14762))) (= y14704 (f1 y14705 (f2 x14762 x14762) x14762)) (= y14705 (f1 y14701 x14762 x14762)) (= y14702 (f1 (f2 (f3 (f1 (f1 y14702 x14762 x14762) (f2 x14762 x14762) x14762) (f2 (f2 x14762 x14762) x14762) x14762 (f3 (f1 x14762 x14762 x14762) x14762 (f2 x14762 x14762) x14762)) (f1 (f3 x14762 x14762 x14762 x14762) (f3 x14762 x14762 x14762 x14762) (f1 x14762 x14762 x14762))) x14762 (f2 (f2 x14762 x14762) (f3 x14762 x14762 x14762 x14762)))) (distinct y14701 y14702)) 
    (and (= y14706 (f3 y14706 y14706 x14762 x14762)) (= y14707 (f3 y14707 y14707 x14762 x14762)) (distinct y14706 y14707)) 
    (and (= y14708 (f1 y14710 (f1 x14762 (f1 x14762 x14762 x14762) (f3 x14762 x14762 x14762 x14762)) (f1 x14762 x14762 x14762))) (= y14710 (f2 y14711 (f3 x14762 x14762 x14762 x14762))) (= y14711 (f2 y14708 x14762)) (= y14709 (f1 y14712 (f1 x14762 (f1 x14762 x14762 x14762) (f3 x14762 x14762 x14762 x14762)) (f1 x14762 x14762 x14762))) (= y14712 (f2 y14713 (f3 x14762 x14762 x14762 x14762))) (= y14713 (f2 y14709 x14762)) (distinct y14708 y14709)) 
    (and (= y14714 (f3 y14714 x14762 y14714 x14762)) (= y14715 (f3 y14715 x14762 y14715 x14762)) (distinct y14714 y14715)) 
    (and (= y14716 (f1 (f2 (f1 (f2 (f3 y14716 x14762 x14762 x14762) (f1 x14762 x14762 x14762)) (f3 x14762 x14762 (f3 x14762 x14762 x14762 x14762) (f3 x14762 x14762 x14762 x14762)) (f2 (f3 x14762 x14762 x14762 x14762) x14762)) (f1 (f1 x14762 x14762 x14762) (f2 x14762 x14762) (f3 x14762 x14762 x14762 x14762))) y14718 x14762)) (= y14718 (f1 y14719 (f3 x14762 x14762 x14762 x14762) (f3 x14762 x14762 x14762 x14762))) (= y14719 (f2 y14720 (f1 x14762 x14762 x14762))) (= y14720 (f2 y14721 (f3 x14762 x14762 x14762 x14762))) (= y14721 (f2 y14716 x14762)) (= x14760 (f1 (f2 (f1 (f2 (f3 x14760 x14762 x14762 x14762) (f1 x14762 x14762 x14762)) (f3 x14762 x14762 (f3 x14762 x14762 x14762 x14762) (f3 x14762 x14762 x14762 x14762)) (f2 (f3 x14762 x14762 x14762 x14762) x14762)) (f1 (f1 x14762 x14762 x14762) (f2 x14762 x14762) (f3 x14762 x14762 x14762 x14762))) y14722 x14762)) (= y14722 (f1 y14723 (f3 x14762 x14762 x14762 x14762) (f3 x14762 x14762 x14762 x14762))) (= y14723 (f2 x14757 (f1 x14762 x14762 x14762))) (= x14757 x14755) (= y14725 (f2 x14760 x14762)) (distinct y14716 x14760)) 
    (and (= y14726 (f3 (f1 (f3 y14726 x14762 x14762 x14762) (f3 x14762 x14762 x14762 x14762) (f1 x14762 x14762 x14762)) y14728 (f2 (f2 x14762 x14762) x14762) x14762)) (= y14728 (f3 y14729 x14762 (f2 x14762 x14762) x14762)) (= y14729 (f1 y14726 x14762 x14762)) (= y14727 (f3 (f1 (f3 y14727 x14762 x14762 x14762) (f3 x14762 x14762 x14762 x14762) (f1 x14762 x14762 x14762)) y14730 (f2 (f2 x14762 x14762) x14762) x14762)) (= y14730 (f3 y14731 x14762 (f2 x14762 x14762) x14762)) (= y14731 (f1 y14727 x14762 x14762)) (distinct y14726 y14727)) 
    (and (= y14732 (f2 x14758 (f2 x14762 x14762))) (= x14758 (f3 y14732 x14762 y14732 x14762)) (= y14733 (f2 y14735 (f2 x14762 x14762))) (= y14735 (f3 y14733 x14762 y14733 x14762)) (distinct y14732 y14733)) 
    (and (= y14736 (f1 (f3 y14738 (f1 y14736 x14762 x14762) (f1 (f3 x14762 x14762 x14762 x14762) x14762 x14762) (f2 x14762 x14762)) (f2 (f2 x14762 (f3 x14762 x14762 x14762 x14762)) x14762) (f1 (f3 x14762 x14762 (f3 x14762 x14762 x14762 x14762) (f3 x14762 x14762 x14762 x14762)) x14762 (f3 x14762 x14762 x14762 x14762)))) (= y14738 x14759) (= y14739 (f1 y14736 x14762 x14762)) (= y14737 (f1 y14740 (f2 (f2 x14762 (f3 x14762 x14762 x14762 x14762)) x14762) (f1 (f3 x14762 x14762 (f3 x14762 x14762 x14762 x14762) (f3 x14762 x14762 x14762 x14762)) x14762 (f3 x14762 x14762 x14762 x14762)))) (= y14740 (f3 y14741 (f1 y14737 x14762 x14762) (f1 (f3 x14762 x14762 x14762 x14762) x14762 x14762) (f2 x14762 x14762))) (= y14741 (f2 y14742 (f1 x14762 x14762 x14762))) (= y14742 (f1 y14737 x14762 x14762)) (distinct y14736 y14737)) 
    (and (= y14743 (f2 y14745 x14762)) (= y14745 (f2 y14746 (f2 x14762 x14762))) (= y14746 (f2 x14761 (f1 (f3 x14762 x14762 x14762 x14762) (f1 x14762 x14762 x14762) (f3 x14762 x14762 x14762 x14762)))) (= x14761 (f2 y14748 x14762)) (= y14748 (f3 y14743 x14762 x14762 x14762)) (= y14744 (f2 (f2 (f2 (f2 (f3 y14744 x14762 x14762 x14762) x14762) (f1 (f3 x14762 x14762 x14762 x14762) (f1 x14762 x14762 x14762) (f3 x14762 x14762 x14762 x14762))) (f2 x14762 x14762)) x14762)) (distinct y14743 y14744)) 
    (and (= x14753 (f2 y14751 x14762)) (= y14751 (f1 x14753 x14762 x14762)) (= x14754 (f2 y14752 x14762)) (= y14752 (f1 x14754 x14762 x14762)) (distinct x14753 x14754))))))
(check-sat)
